nNurses = 80;
nHours = 39;
minHours = 10;
maxHours = 20;
maxConsec = 9;
maxPresence = 28;
demand = [10, 14, 18, 17, 14, 19, 16, 18, 13, 15, 12, 7, 11, 10, 8, 12, 10, 15, 15, 10, 6, 8, 11, 11, 13, 10, 6, 9, 9, 8, 12, 7, 12, 15, 13, 18, 16, 17, 13];
